NAME : in_house_7_18
TYPE : TSP
DIMENSION : 7
EDGE_WEIGHT_TYPE : EXPLICIT
EDGE_WEIGHT_FORMAT : UPPER_ROW
COMMENT : INVERSION_SHIFT=3
EDGE_WEIGHT_SECTION
47
35
45
48
30
17
47
35
17
42
5
44
9
6
21
4
36
42
16
34
38
